
  22    4
  10   10   10   10

   0   0   0   0   0   8 2 3 4 5 6 7 12 16 
   1  10  10  10  10   4 13 11 9 8 
   3  10  10  10  10   6 21 20 19 18 14 13 
   2  10  10  10  10   3 14 11 10 
   2  10  10  10  10   3 15 13 11 
   5  10  10  10  10   4 20 19 18 13 
  10  10  10  10  10   3 21 17 11 
   7  10  10  10  10   4 21 20 19 18 
   9  10  10  10  10   3 21 18 17 
   6  10  10  10  10   3 19 18 17 
   5  10  10  10  10   2 20 18 
   7  10  10  10  10   2 19 17 
   8  10  10  10  10   1 17 
   9  10  10  10  10   1 17 
   4  10  10  10  10   1 17 
   1  10  10  10  10   1 19 
   8  10  10  10  10   1 22
   5  10  10  10  10   1 22
   4  10  10  10  10   1 22
   4  10  10  10  10   1 22
   6  10  10  10  10   1 22
   0   0   0   0   0   0 
